#######################################################
#CASTEP cell file: C:\Users\mateu\OneDrive - University of Edinburgh\Chemistry 5\Python scripts\cell_builder\CASTEP\castep.cell
#Created using the Atomic Simulation Environment (ASE)#
#######################################################

%BLOCK LATTICE_CART
 8.757900  0.000000  0.000000
-6.018102 49.636503  0.000000
-12.046131 -1.460515 48.505233
%ENDBLOCK LATTICE_CART

%BLOCK POSITIONS_ABS
O -5.279703 24.799464 25.018623
O -4.026629 23.376524 23.486610
H -4.653166 24.087994 24.252617
O -8.457126 24.599215 25.192364
O -0.849206 23.576773 23.312869
H -9.032116 24.087994 24.252617
N -6.306594 26.751440 25.395567
N -2.999739 21.424549 23.109666
N -7.472133 24.395292 27.192945
N -1.834199 23.780697 21.312288
C -6.116368 25.200660 22.197187
C -3.189964 22.975328 26.308047
H -6.482080 24.382125 22.511519
H -2.824253 23.793863 25.993714
C -5.999283 25.433133 20.831288
C -3.307049 22.742856 27.673945
H -6.294534 24.778423 20.209467
H -3.011799 23.397565 28.295767
C -5.449200 26.625253 20.379227
C -3.857132 21.550735 28.126006
H -5.370635 26.783809 19.445821
H -3.935698 21.392179 29.059412
C -5.012355 27.590369 21.283140
C -4.293977 20.585619 27.222093
H -4.628568 28.399199 20.965569
H -4.677765 19.776789 27.539664
C -5.137850 27.370236 22.651859
C -4.168482 20.805752 25.853374
H -4.846927 28.028586 23.271842
H -4.459406 20.147402 25.233391
C -5.695089 26.173238 23.105069
C -3.611244 22.002751 25.400164
C -5.763743 25.886106 24.560607
C -3.542590 22.289883 23.944626
C -7.119526 27.890129 24.972445
C -2.186806 20.285859 23.532788
H -7.935047 27.928562 25.514532
H -1.371285 20.247426 22.990701
H -7.359606 27.787105 24.027955
H -1.946726 20.388884 24.477278
H -6.608941 28.718122 25.091337
H -2.697392 19.457867 23.413896
C -6.236558 26.536417 26.846612
C -3.069775 21.639571 21.658621
H -6.123000 27.409879 27.298673
H -3.183333 20.766109 21.206560
H -5.443224 25.981841 27.054307
H -3.863108 22.194148 21.450926
C -7.480991 25.850651 27.392596
C -1.825341 22.325337 21.112638
H -7.554887 26.041941 28.361105
H -1.751446 22.134047 20.144128
H -8.279326 26.231383 26.947796
H -1.027007 21.944605 21.557437
C -6.740969 23.641472 28.210317
C -2.565364 24.534516 20.294916
H -5.870988 24.064251 28.367833
H -3.435345 24.111737 20.137400
H -6.605785 22.721417 27.900989
H -2.700548 25.454572 20.604244
H -7.255988 23.633422 29.044044
H -2.050344 24.542566 19.461189
C -8.027504 23.846523 26.128142
C -1.278828 24.329465 22.377092
C -8.149079 22.366424 26.056263
C -1.157253 25.809564 22.448970
C -8.849492 21.692190 27.060471
C -0.456841 26.483798 21.444762
H -9.270280 22.182592 27.756877
H -0.036052 25.993396 20.748356
C -8.930735 20.304594 27.041039
C -0.375597 27.871395 21.464194
H -9.417307 19.845344 27.715536
H  0.110975 28.330644 20.789697
C -8.298690 19.594696 26.033174
C -1.007642 28.581292 22.472059
H -8.330333 18.645252 26.034209
H -0.975999 29.530736 22.471025
C -7.621314 20.258429 25.024474
C -1.685018 27.917560 23.480759
H -7.168864 19.811136 24.367538
H -2.137469 28.364852 24.137695
C -7.551929 21.655748 25.018623
C -1.754403 26.520241 23.486610
H -7.103836 22.112947 24.316795
H -2.202497 26.063041 24.188438
%ENDBLOCK POSITIONS_ABS

%BLOCK SPECIES_POT

%ENDBLOCK SPECIES_POT

FIX_ALL_CELL: TRUE
SYMMETRY_GENERATE: 
KPOINT_MP_SPACING: 0.05
